10J3M/DAT/10J3MULA-11.dat
10 3
26.343 693.9536
2.5325 6.4136
17.9304 321.4992
31.8366 1013.5691
8.3884 70.3653
36.5973 1339.3624
6.5769 43.2556
37.5767 1412.0084
29.3937 863.9896
33.2363 1104.6516
2289.6895