10J3M/SOL/10J3MULA-11.sol
solution status: optimal solution found
objective value:                     76.8039333333333
x#1#3                                               1 	(obj:0)
x#2#1                                               1 	(obj:0)
x#3#2                               0.665950811274613 	(obj:0)
x#3#3                               0.334049188725387 	(obj:0)
x#4#3                                               1 	(obj:0)
x#5#1                               0.211745077352826 	(obj:0)
x#5#2                               0.788254922647174 	(obj:0)
x#6#1                               0.316488612172989 	(obj:0)
x#6#2                               0.683511387827011 	(obj:0)
x#7#1                                               1 	(obj:0)
x#8#1                               0.663762444285644 	(obj:0)
x#8#3                               0.336237555714356 	(obj:0)
x#9#1                                               1 	(obj:0)
x#10#2                                              1 	(obj:0)
z                                    76.8039333333333 	(obj:1)
